\ENCODING=ISO-8859-1
\Problem name: CompactLP

Maximize
 obj: d
Subject To
 SumX: x1 + x2 + x3 + x4 + x5 + x6 + x7 + x8 + x9 + x10  = 1
 AP1:  d + 23.4375 x2 + 23.4375 x4 <= 0
 AP2:  d + 24.90234375 x2 + 23.4375 x5 <= 0
 AP3:  d + 13.125 x6 <= 0
 AP4:  d + 13.125 x2 + 13.125 x9 <= 0
 AP5:  d + 27.1875 x2 + 27.1875 x8 + 27.1875 x10 <= 0
 AP6:  d + 27.1875 x3 <= 0
 AP7:  d + 3.75 x1 <= 0
 AP8:  d + 3.75 x2 + 3.75 x7 <= 0
Bounds
-10000 <= d <= 10000
 0 <= x1 <= 1
 0 <= x2 <= 1
 0 <= x3 <= 1
 0 <= x4 <= 1
 0 <= x5 <= 1
 0 <= x6 <= 1
 0 <= x7 <= 1
 0 <= x8 <= 1
 0 <= x9 <= 1
 0 <= x10 <= 1
End
